results/x-long/X-n139-k10.vrp_seed-18.out
13590	1331
