results/x-long/X-n139-k10.vrp_seed-18.vrp.sol
Route #1: 79 121 20 45 110 35 58 31 97 13 10 109
Route #2: 56 76 111 105 82 106 77 43 46 55 138 122 98
Route #3: 7 30 84 51 39 8 15 60 59 42 67 100 71 91
Route #4: 104 136 83 68 116 128 47 119 1 18 21 103 28 63
Route #5: 3 81 102 134 40 37 17 11 101 14 135 33 86 89
Route #6: 124 62 4 23 26 22 112 25 125 137 114 32 16
Route #7: 73 120 78 80 41 92 107 132 93 130 127 64 133 75 54
Route #8: 88 70 74 50 123 27 115 34 131 38 69 94 108 9
Route #9: 29 57 44 65 48 61 19 66 72 117 87 52 126 95
Route #10: 99 2 49 12 90 113 6 5 96 53 129 36 24 85 118
Cost 13590.000000